bench/smt/sat/loop_zilu.benchmark53_polynomial.smt.log
sat
(
  (define-fun inv ((x!0 Int) (x!1 Int)) Bool
    (let ((a!1 (or (not (<= 0 x!0)) (and (<= 0 x!0) (not (<= 1 x!0))))))
      (and a!1 (not (<= 1 x!1)))))
)
 (0 > x0) \/ ((0<=x0) /\ (1 > x0)) /\ (1 > x1)
